50
    1    14     4
    2    56    46
    3    58    48
    4    29    19
    5    14     4
    6    30    20
    7    23    13
    8    60    50
    9    38    28
   10    16     6
   11    54    44
   12    51    41
   13    11     1
   14    30    20
   15    18     8
   16    20    10
   17    29    19
   18    55    45
   19    30    20
   20    43    33
   21    18     8
   22    55    45
   23    43    33
   24    55    45
   25    56    46
   26    23    13
   27    26    16
   28    52    42
   29    21    11
   30    31    21
   31    11     1
   32    12     2
   33    41    31
   34    18     8
   35    56    46
   36    42    32
   37    57    47
   38    47    37
   39    18     8
   40    16     6
   41    47    37
   42    30    20
   43    54    44
   44    15     5
   45    16     6
   46    12     2
   47    41    31
   48    24    14
   49    25    15
   50    53    43
398
